10
1 0 48
2 0 33
2 1 56
3 0 35
3 1 23
3 2 26
4 0 3
4 1 25
4 2 54
4 3 45
5 0 48
5 1 18
5 2 3
5 3 18
5 4 45
6 0 46
6 1 56
6 2 18
6 3 50
6 4 54
6 5 14
7 0 46
7 1 45
7 2 46
7 3 44
7 4 58
7 5 59
7 6 32
8 0 59
8 1 37
8 2 1
8 3 53
8 4 28
8 5 5
8 6 32
8 7 7
9 0 46
9 1 30
9 2 60
9 3 12
9 4 25
9 5 54
9 6 36
9 7 37
9 8 29
